119 6
3036 108 81 97 12 84 88 50 62 103 104 100 46 25 4 116 40 16 102 98 112 63
2282 70 95 53 86 71 101 110 10 26 33 39 61 111 54 92 31 90 24 28 30 72
2631 66 32 35 114 22 78 117 29 20 11 48 1 42 75 41 38 44 2 7 77 69
1020 19 106 115 87 9 60 118 93 83 15 79 37 51 49
3128 13 57 14 82 109 73 64 85 47 105 6 96 45 65 107 74 18 27 17 43 8
2852 5 91 34 55 0 23 36 56 80 68 67 59 94 3 21 58 99 76 52 89 113
0 1 2 3 4 5 
